120 146 3 36 116 39 12 83 51 72 189 29 76 198 32 152 121 171 175 109 127 41 138 194 134 16 103 65 128 77 151 147 112 182 111 66 192 40 46 95 122 11 113 126 170 0 89 74 42 52 1 191 130 115 15 14 153 8 99 163 186 150 94 156 55 176 118 75 160 63 180 26 157 9 140 61 70 92 43 87 139 96 97 166 49 10 6 158 22 45 131 161 104 155 172 84 141 19 195 25 117 101 137 110 184 33 148 85 30 106 164 93 102 167 57 48 98 82 68 79 24 181 119 88 69 35 73 21 100 44 67 71 193 47 91 154 4 123 59 108 7 197 114 196 80 136 129 188 159 173 64 13 132 54 162 27 20 143 78 168 90 18 34 133 62 105 149 142 28 23 178 60 53 145 199 179 31 174 81 177 17 144 58 86 2 5 183 185 38 187 50 135 107 190 169 124 56 165 37 125